p cnf 296 744
-1 10 0 
1 274 0 
-84 -85 -28 0 
-84 85 28 0 
-85 86 0 
-86 87 0 
-10 -11 12 0 
-10 11 56 0 
-88 -89 32 0 
-88 -32 89 0 
-89 -90 -94 0 
-89 90 94 0 
-90 -91 -33 0 
-90 91 33 0 
-91 92 0 
-92 93 0 
-94 95 0 
-95 96 0 
-96 85 0 
-96 28 0 
-11 8 0 
-97 -98 37 0 
-97 -37 98 0 
-98 -99 -103 0 
-98 99 103 0 
-99 -100 -38 0 
-99 100 38 0 
-100 101 0 
-101 102 0 
-103 104 107 0 
-104 105 106 0 
-105 91 0 
-105 33 0 
-106 94 0 
-106 33 0 
-107 91 0 
-107 94 0 
-108 -109 42 0 
-108 -42 109 0 
-109 -110 -114 0 
-109 110 114 0 
-110 -111 -43 0 
-110 111 43 0 
-111 112 0 
-112 113 0 
-12 13 0 
-12 51 0 
-114 115 118 0 
-115 116 117 0 
-116 100 0 
-116 38 0 
-117 103 0 
-117 38 0 
-118 100 0 
-118 103 0 
-119 -120 47 0 
-119 -47 120 0 
-120 -121 -125 0 
-120 121 125 0 
-121 -122 -48 0 
-121 122 48 0 
-122 123 0 
-13 14 0 
-13 46 0 
-123 124 0 
-125 126 129 0 
-126 127 128 0 
-127 111 0 
-127 43 0 
-128 114 0 
-128 43 0 
-129 111 0 
-129 114 0 
-130 -131 52 0 
-130 -52 131 0 
-131 -132 -136 0 
-131 132 136 0 
-14 15 0 
-14 41 0 
-132 -133 -53 0 
-132 133 53 0 
-133 134 0 
-134 135 0 
-136 137 140 0 
-137 138 139 0 
-138 122 0 
-138 48 0 
-139 125 0 
-139 48 0 
-140 122 0 
-140 125 0 
-15 16 0 
-15 36 0 
-141 -142 146 0 
-141 142 250 0 
-142 143 0 
-142 69 0 
-143 144 0 
-143 67 0 
-144 145 0 
-144 65 0 
-145 64 0 
-146 -147 149 0 
-146 147 181 0 
-147 148 0 
-149 150 0 
-149 177 0 
-150 151 0 
-150 173 0 
-16 17 0 
-16 31 0 
-151 152 0 
-151 169 0 
-152 153 0 
-152 165 0 
-153 154 0 
-153 161 0 
-154 155 0 
-154 157 0 
-155 156 0 
-155 19 0 
-156 -22 0 
-157 -158 27 0 
-157 -27 158 0 
-158 159 0 
-159 160 0 
-17 18 0 
-17 26 0 
-161 -162 32 0 
-161 -32 162 0 
-162 163 0 
-163 164 0 
-165 -166 37 0 
-165 -37 166 0 
-166 167 0 
-167 168 0 
-1 2 6 0 
-18 19 0 
-18 21 0 
-169 -170 42 0 
-169 -42 170 0 
-170 171 0 
-171 172 0 
-173 -174 47 0 
-173 -47 174 0 
-174 175 0 
-175 176 0 
-19 -20 0 
-177 -178 52 0 
-177 -52 178 0 
-178 179 0 
-179 180 0 
-181 182 0 
-181 238 0 
-182 183 0 
-182 229 0 
-183 184 0 
-183 220 0 
-184 185 0 
-184 211 0 
-185 186 0 
-185 202 0 
-186 187 0 
-186 195 0 
-187 188 0 
-187 191 0 
-188 -20 189 0 
-188 -189 20 0 
-189 190 0 
-190 25 0 
-191 -192 22 0 
-191 -22 192 0 
-192 193 0 
-193 -194 -30 0 
-193 194 30 0 
-194 159 0 
-195 -196 27 0 
-195 -27 196 0 
-196 -197 -199 0 
-196 197 199 0 
-197 -198 -35 0 
-197 198 35 0 
-198 163 0 
-199 200 0 
-200 201 0 
-201 194 0 
-201 30 0 
-202 -203 32 0 
-202 -32 203 0 
-203 -204 -206 0 
-203 204 206 0 
-204 -205 -40 0 
-204 205 40 0 
-205 167 0 
-206 207 210 0 
-207 208 209 0 
-208 198 0 
-208 35 0 
-209 199 0 
-209 35 0 
-210 198 0 
-210 199 0 
-211 -212 37 0 
-211 -37 212 0 
-212 -213 -215 0 
-212 213 215 0 
-213 -214 -45 0 
-213 214 45 0 
-214 171 0 
-215 216 219 0 
-216 217 218 0 
-217 205 0 
-217 40 0 
-218 206 0 
-218 40 0 
-219 205 0 
-219 206 0 
-21 -22 23 0 
-21 -23 22 0 
-220 -221 42 0 
-220 -42 221 0 
-221 -222 -224 0 
-221 222 224 0 
-222 -223 -50 0 
-222 223 50 0 
-223 175 0 
-224 225 228 0 
-225 226 227 0 
-226 214 0 
-226 45 0 
-227 215 0 
-227 45 0 
-228 214 0 
-228 215 0 
-229 -230 47 0 
-229 -47 230 0 
-230 -231 -233 0 
-230 231 233 0 
-231 -232 -55 0 
-231 232 55 0 
-232 179 0 
-233 234 237 0 
-234 235 236 0 
-235 223 0 
-235 50 0 
-236 224 0 
-236 50 0 
-237 223 0 
-237 224 0 
-23 24 0 
-238 -239 52 0 
-238 -52 239 0 
-239 -240 -245 0 
-239 240 245 0 
-240 -241 -244 0 
-240 241 244 0 
-241 242 0 
-242 243 0 
-245 246 249 0 
-246 247 248 0 
-24 25 0 
-247 232 0 
-247 55 0 
-248 233 0 
-248 55 0 
-249 232 0 
-249 233 0 
-250 -251 259 0 
-250 251 274 0 
-251 252 0 
-252 253 0 
-253 254 0 
-254 255 0 
-255 256 0 
-255 69 0 
-256 257 0 
-256 67 0 
-2 -3 0 
-257 258 0 
-257 63 0 
-258 66 0 
-259 260 0 
-259 273 0 
-260 261 0 
-260 272 0 
-261 262 0 
-261 271 0 
-262 263 0 
-262 270 0 
-263 264 0 
-263 269 0 
-264 265 0 
-264 268 0 
-265 266 0 
-265 267 0 
-266 -20 0 
-267 -22 0 
-268 -27 0 
-269 -32 0 
-270 -37 0 
-271 -42 0 
-272 -47 0 
-273 -52 0 
-274 275 0 
-274 295 0 
-275 276 0 
-275 293 0 
-26 -27 28 0 
-26 -28 27 0 
-276 277 0 
-276 291 0 
-277 278 0 
-277 289 0 
-278 279 0 
-278 287 0 
-279 280 0 
-279 285 0 
-280 281 0 
-280 283 0 
-281 -20 282 0 
-281 -282 20 0 
-283 -22 284 0 
-283 -284 22 0 
-285 -27 286 0 
-285 -286 27 0 
-287 -288 32 0 
-287 -32 288 0 
-289 -290 37 0 
-289 -37 290 0 
-291 -292 42 0 
-291 -42 292 0 
-293 -294 47 0 
-293 -47 294 0 
-295 -296 52 0 
-295 -52 296 0 
-28 29 0 
-29 30 0 
-31 -32 33 0 
-31 -33 32 0 
-3 -4 5 0 
-3 -5 4 0 
-33 34 0 
-34 35 0 
-36 -37 38 0 
-36 -38 37 0 
-38 39 0 
-39 40 0 
-41 -42 43 0 
-41 -43 42 0 
-43 44 0 
-44 45 0 
-46 -47 48 0 
-46 -48 47 0 
-48 49 0 
-49 50 0 
-51 -52 53 0 
-51 -53 52 0 
-53 54 0 
-54 55 0 
-56 -57 59 0 
-56 57 274 0 
-57 2 0 
-57 58 0 
-6 -7 0 
-58 4 0 
-59 -60 71 0 
-59 60 141 0 
-60 61 0 
-60 69 0 
-61 62 0 
-61 67 0 
-62 63 0 
-62 65 0 
-63 -64 0 
-65 -66 0 
-67 -68 0 
-7 -9 8 0 
-7 -8 9 0 
-69 -70 0 
-71 130 0 
-71 72 0 
-72 119 0 
-72 73 0 
-73 108 0 
-73 74 0 
-74 97 0 
-74 75 0 
-75 88 0 
-75 76 0 
-76 77 0 
-76 82 0 
-77 78 0 
-77 79 0 
-78 -20 0 
-79 -22 80 0 
-79 -80 22 0 
-80 81 0 
-81 23 0 
-82 -27 83 0 
-82 -83 27 0 
-83 84 0 
84 -85 28 0 
84 -28 85 0 
85 -86 0 
86 -87 0 
10 -11 -12 0 
10 -12 -56 0 
10 11 -56 0 
88 -32 -89 0 
88 32 89 0 
89 -90 94 0 
89 -94 90 0 
90 -91 33 0 
90 -33 91 0 
91 -92 0 
92 -93 0 
94 -95 0 
95 -96 0 
96 -85 -28 0 
11 -8 0 
97 -37 -98 0 
97 37 98 0 
98 -99 103 0 
98 -103 99 0 
99 -100 38 0 
99 -38 100 0 
100 -101 0 
101 -102 0 
103 -104 0 
103 -107 0 
104 -105 0 
104 -106 0 
105 -91 -33 0 
106 -33 -94 0 
107 -91 -94 0 
108 -42 -109 0 
108 42 109 0 
109 -110 114 0 
109 -114 110 0 
110 -111 43 0 
110 -43 111 0 
111 -112 0 
112 -113 0 
12 -13 -51 0 
114 -115 0 
114 -118 0 
115 -116 0 
115 -117 0 
116 -100 -38 0 
117 -38 -103 0 
118 -100 -103 0 
119 -47 -120 0 
119 47 120 0 
120 -121 125 0 
120 -125 121 0 
121 -122 48 0 
121 -48 122 0 
122 -123 0 
13 -14 -46 0 
123 -124 0 
125 -126 0 
125 -129 0 
126 -127 0 
126 -128 0 
127 -111 -43 0 
128 -43 -114 0 
129 -111 -114 0 
130 -52 -131 0 
130 52 131 0 
131 -132 136 0 
131 -136 132 0 
14 -15 -41 0 
132 -133 53 0 
132 -53 133 0 
133 -134 0 
134 -135 0 
136 -137 0 
136 -140 0 
137 -138 0 
137 -139 0 
138 -122 -48 0 
139 -48 -125 0 
140 -122 -125 0 
15 -16 -36 0 
141 -142 -146 0 
141 -146 -250 0 
141 142 -250 0 
142 -143 -69 0 
143 -144 -67 0 
144 -145 -65 0 
145 -64 0 
146 -147 -149 0 
146 -149 -181 0 
146 147 -181 0 
147 -148 0 
149 -150 -177 0 
150 -151 -173 0 
16 -17 -31 0 
151 -152 -169 0 
152 -153 -165 0 
153 -154 -161 0 
154 -155 -157 0 
155 -19 -156 0 
156 22 0 
157 -27 -158 0 
157 27 158 0 
158 -159 0 
159 -160 0 
17 -18 -26 0 
161 -32 -162 0 
161 32 162 0 
162 -163 0 
163 -164 0 
165 -37 -166 0 
165 37 166 0 
166 -167 0 
167 -168 0 
1 -2 0 
1 -6 0 
18 -19 -21 0 
169 -42 -170 0 
169 42 170 0 
170 -171 0 
171 -172 0 
173 -47 -174 0 
173 47 174 0 
174 -175 0 
175 -176 0 
19 20 0 
177 -52 -178 0 
177 52 178 0 
178 -179 0 
179 -180 0 
181 -182 -238 0 
182 -183 -229 0 
183 -184 -220 0 
184 -185 -211 0 
185 -186 -202 0 
186 -187 -195 0 
187 -188 -191 0 
188 -20 -189 0 
188 20 189 0 
189 -190 0 
190 -25 0 
191 -22 -192 0 
191 22 192 0 
192 -193 0 
193 -194 30 0 
193 -30 194 0 
194 -159 0 
195 -27 -196 0 
195 27 196 0 
196 -197 199 0 
196 -199 197 0 
197 -198 35 0 
197 -35 198 0 
198 -163 0 
199 -200 0 
200 -201 0 
201 -194 -30 0 
202 -32 -203 0 
202 32 203 0 
203 -204 206 0 
203 -206 204 0 
204 -205 40 0 
204 -40 205 0 
205 -167 0 
206 -207 0 
206 -210 0 
207 -208 0 
207 -209 0 
208 -198 -35 0 
209 -35 -199 0 
210 -198 -199 0 
211 -37 -212 0 
211 37 212 0 
212 -213 215 0 
212 -215 213 0 
213 -214 45 0 
213 -45 214 0 
214 -171 0 
215 -216 0 
215 -219 0 
216 -217 0 
216 -218 0 
217 -205 -40 0 
218 -40 -206 0 
219 -205 -206 0 
21 -22 -23 0 
21 22 23 0 
220 -42 -221 0 
220 42 221 0 
221 -222 224 0 
221 -224 222 0 
222 -223 50 0 
222 -50 223 0 
223 -175 0 
224 -225 0 
224 -228 0 
225 -226 0 
225 -227 0 
226 -214 -45 0 
227 -45 -215 0 
228 -214 -215 0 
229 -47 -230 0 
229 47 230 0 
230 -231 233 0 
230 -233 231 0 
231 -232 55 0 
231 -55 232 0 
232 -179 0 
233 -234 0 
233 -237 0 
234 -235 0 
234 -236 0 
235 -223 -50 0 
236 -50 -224 0 
237 -223 -224 0 
23 -24 0 
238 -52 -239 0 
238 52 239 0 
239 -240 245 0 
239 -245 240 0 
240 -241 244 0 
240 -244 241 0 
241 -242 0 
242 -243 0 
245 -246 0 
245 -249 0 
246 -247 0 
246 -248 0 
24 -25 0 
247 -232 -55 0 
248 -55 -233 0 
249 -232 -233 0 
250 -251 -259 0 
250 -259 -274 0 
250 251 -274 0 
251 -252 0 
252 -253 0 
253 -254 0 
254 -255 0 
255 -256 -69 0 
256 -257 -67 0 
2 3 0 
257 -63 -258 0 
258 -66 0 
259 -260 -273 0 
260 -261 -272 0 
261 -262 -271 0 
262 -263 -270 0 
263 -264 -269 0 
264 -265 -268 0 
265 -266 -267 0 
266 20 0 
267 22 0 
268 27 0 
269 32 0 
270 37 0 
271 42 0 
272 47 0 
273 52 0 
274 -275 -295 0 
275 -276 -293 0 
26 -27 -28 0 
26 27 28 0 
276 -277 -291 0 
277 -278 -289 0 
278 -279 -287 0 
279 -280 -285 0 
280 -281 -283 0 
281 -20 -282 0 
281 20 282 0 
283 -22 -284 0 
283 22 284 0 
285 -27 -286 0 
285 27 286 0 
287 -32 -288 0 
287 32 288 0 
289 -37 -290 0 
289 37 290 0 
291 -42 -292 0 
291 42 292 0 
293 -47 -294 0 
293 47 294 0 
295 -52 -296 0 
295 52 296 0 
28 -29 0 
29 -30 0 
31 -32 -33 0 
31 32 33 0 
3 -4 -5 0 
3 4 5 0 
33 -34 0 
34 -35 0 
36 -37 -38 0 
36 37 38 0 
38 -39 0 
39 -40 0 
41 -42 -43 0 
41 42 43 0 
43 -44 0 
44 -45 0 
46 -47 -48 0 
46 47 48 0 
48 -49 0 
49 -50 0 
51 -52 -53 0 
51 52 53 0 
53 -54 0 
54 -55 0 
56 -57 -59 0 
56 -59 -274 0 
56 57 -274 0 
57 -2 -58 0 
6 7 0 
58 -4 0 
59 -60 -71 0 
59 -71 -141 0 
59 60 -141 0 
60 -61 -69 0 
61 -62 -67 0 
62 -63 -65 0 
63 64 0 
65 66 0 
67 68 0 
7 -8 -9 0 
7 8 9 0 
69 70 0 
71 -72 -130 0 
72 -73 -119 0 
73 -74 -108 0 
74 -75 -97 0 
75 -76 -88 0 
76 -77 -82 0 
77 -78 -79 0 
78 20 0 
79 -22 -80 0 
79 22 80 0 
80 -81 0 
81 -23 0 
82 -27 -83 0 
82 27 83 0 
83 -84 0 
